unsat
(:binary-propagations  7
 :conflicts            1
 :final-checks         1
 :max-generation       1
 :max-memory           22.84
 :memory               20.77
 :mk-bool-var          116
 :mk-clause            31
 :mk-clause-binary     145
 :num-allocs           3368505
 :num-checks           1
 :propagations         7
 :quant-instantiations 26
 :restarts             1
 :rlimit-count         32897
 :time                 0.01)
